db/data/2352713937216591738621855228282568620138.z3.out
-------------------
2500.122691764
